Instance Name : r210
Date : 2022-07-21
Solution
Route 1 : 95 92 42 15 14 44 38 86 16 61 85 99 93 59 97 37 98 100 91 17 60 89
Route 2 : 18 83 45 46 48 82 8 84 5 96 6 94 13
Route 3 : 53 40 2 87 57 43 41 22 74 58
Route 4 : 21 73 72 75 23 67 39 56 4 55 25 54 26
Route 5 : 28 12 76 3 79 29 24 80 68 77 50
Route 6 : 52 7 88 62 11 19 47 36 64 49 63 90 32 10 31
Route 7 : 27 69 1 30 51 33 81 65 71 9 78 34 35 66 20 70
